s 1
v -842150451 -1684300902 1768515943 4 84215041 -757935410 -1600085861 1852730984 1010580533 10 -673720369 -1515870820 1936946025 -14 252645123 16 -1431655779 2021161066 1179010615 -20 -505290287 -1347440738 23 1263225656 25 -26 -27 -2105376148 1347440697 30 -336860205 32 -2021161107 1431655738 589505287 -252645164 -1094795615 -1936946066 1515870779 673720328 -168430123 42 -1852731025 44 757935369 -84215082 -926365533 -1768515984 1684300861 50 -41 -842150492 -1684300943 1768515902 926365451 56 -757935451 -58 59 1010580492 168430041 -673720410 -1515870861 64 65 252645082 -67 -1431655820 2021161025 1179010574 336860123 72 -1347440779 2105376066 75 421075164 -421075287 -1263225738 79 80 505290205 -336860246 -1179010697 84 1431655697 589505246 -87 88 89 90 673720287 -168430164 -1010580615 -1852731066 1600085779 -96 -84215123 -926365574 -1768516025 1684300820 
t 9ms